135
10000
1458
1599
2387
1111
2045
1155
134
1362
2367
915
238
1974
196
842
1517
1466
297
372
1181
341
481
506
34
666
281
774
2276
1626
779
932
1968
252
956
2047
551
1205
1975
1153
518
788
250
1939
2179
773
33
1140
1374
1097
1068
990
1265
933
1385
688
1460
1999
112
161
2105
1903
2300
1140
2273
2100
60
1839
1700
969
2031
39
1459
117
361
954
1259
2017
1053
762
964
2481
191
1631
896
1581
1618
1457
616
1223
383
1374
2444
271
2149
1561
1760
2422
1531
2043
1723
225
521
1017
652
1990
274
1084
1480
448
1040
964
134
2
2031
185
1425
910
702
115
2159
342
1382
696
1372
534
302
287
501
2221
2137
988
227
75
2320
211
716
